************************************************************************
file with basedata            : J12022_.BAS
initial value random generator: 527105177
************************************************************************
projects                      :  1
jobs (incl. supersource/sink ):  122
horizon                       :  704
RESOURCES
  - renewable                 :  4   R
  - nonrenewable              :  0   N
  - doubly constrained        :  0   D
************************************************************************
PROJECT INFORMATION:
pronr.  #jobs rel.date duedate tardcost  MPM-Time
    1    120      0      104       11      104
************************************************************************
PRECEDENCE RELATIONS:
jobnr.    #modes  #successors   successors
   1        1          3           2   3   4
   2        1          3           5  11  52
   3        1          3           6  12  63
   4        1          3          69 100 119
   5        1          3           7   8   9
   6        1          3          17  44  94
   7        1          3          13  14  18
   8        1          3          15  19  22
   9        1          1          10
  10        1          1          40
  11        1          3          16  25  49
  12        1          3          20  21  24
  13        1          2          68  69
  14        1          3          78  87 113
  15        1          3          30  33  36
  16        1          2          27  48
  17        1          2          81 102
  18        1          1          46
  19        1          1          28
  20        1          2          23  54
  21        1          2          92  96
  22        1          1          93
  23        1          3          26  60  82
  24        1          3          31  37  66
  25        1          3          32  65  76
  26        1          3          29  41  51
  27        1          2          34  35
  28        1          3          35  45  59
  29        1          3          43  56  61
  30        1          3          39  42  70
  31        1          1         106
  32        1          3          45  68  74
  33        1          1          38
  34        1          3          55  79  85
  35        1          3          57  63  88
  36        1          2          47 108
  37        1          3          75  77 102
  38        1          2          63  81
  39        1          1          43
  40        1          3          65  68  96
  41        1          1          53
  42        1          2          89 107
  43        1          3          72  73  84
  44        1          3          95  97 111
  45        1          1          90
  46        1          2          48  87
  47        1          2          58  72
  48        1          2          50  78
  49        1          3          64  90  95
  50        1          1         104
  51        1          1          94
  52        1          2          57  77
  53        1          2          89 117
  54        1          3          74  82 114
  55        1          1          57
  56        1          3          62  71  72
  57        1          2          92  98
  58        1          1          67
  59        1          1         104
  60        1          3          73 105 116
  61        1          1         104
  62        1          1         115
  63        1          1         115
  64        1          1          78
  65        1          1          98
  66        1          1          97
  67        1          1         111
  68        1          1          83
  69        1          2          76  79
  70        1          1         121
  71        1          3          80  84  95
  72        1          1          85
  73        1          2          93  96
  74        1          2          87 105
  75        1          1          80
  76        1          2          81 103
  77        1          2          88  98
  78        1          1          91
  79        1          1         101
  80        1          1          94
  81        1          1         120
  82        1          3          83  88  97
  83        1          1          91
  84        1          1         113
  85        1          3          86 100 110
  86        1          3          90  99 101
  87        1          1         109
  88        1          1          91
  89        1          3          93 105 110
  90        1          1          92
  91        1          1         101
  92        1          2         106 107
  93        1          1          99
  94        1          1         114
  95        1          2         102 121
  96        1          1          99
  97        1          2         100 112
  98        1          2         103 108
  99        1          1         112
 100        1          1         115
 101        1          2         103 117
 102        1          1         110
 103        1          1         106
 104        1          2         107 108
 105        1          2         118 119
 106        1          1         109
 107        1          3         109 114 116
 108        1          1         112
 109        1          1         111
 110        1          1         119
 111        1          1         118
 112        1          1         113
 113        1          1         120
 114        1          1         120
 115        1          1         116
 116        1          1         117
 117        1          1         118
 118        1          1         121
 119        1          1         122
 120        1          1         122
 121        1          1         122
 122        1          0        
************************************************************************
REQUESTS/DURATIONS:
jobnr. mode duration  R 1  R 2  R 3  R 4
------------------------------------------------------------------------
  1      1     0       0    0    0    0
  2      1     8       0    0    0    3
  3      1     4       0    0    0    6
  4      1     8       0    0    6    0
  5      1     5       0    0    7    0
  6      1     2       0    0    9    0
  7      1     9       6    0    0    0
  8      1     5       4    0    0    0
  9      1     2       0    0    6    0
 10      1     3       7    0    0    0
 11      1     6       0    0    2    0
 12      1     4       0    0    3    0
 13      1     4       0    0    6    0
 14      1     7       0    0    3    0
 15      1     9       0    0    0   10
 16      1     9       0    0    0    3
 17      1     1       0    0   10    0
 18      1     7       0    7    0    0
 19      1     6       6    0    0    0
 20      1     8       0    2    0    0
 21      1     2       0    0    0    2
 22      1     7       0    0    0    6
 23      1     3       0    0    3    0
 24      1     6       0    0    9    0
 25      1     8       0    0    0    3
 26      1     4       2    0    0    0
 27      1     9       6    0    0    0
 28      1     6       0    7    0    0
 29      1     8       0    0    7    0
 30      1    10       0    0    0    9
 31      1    10       0    0    0    4
 32      1     7       4    0    0    0
 33      1     4       0    0    7    0
 34      1    10       0    0    6    0
 35      1     6       0    0    9    0
 36      1     8       0    0    5    0
 37      1     1       5    0    0    0
 38      1    10      10    0    0    0
 39      1     5       0    0    3    0
 40      1     4       0    0    0    2
 41      1     8       3    0    0    0
 42      1     9       0    0    2    0
 43      1    10       0    0    1    0
 44      1    10       0    7    0    0
 45      1     7       1    0    0    0
 46      1    10       0    0    4    0
 47      1     6       9    0    0    0
 48      1     4       0    9    0    0
 49      1     4       0    0    6    0
 50      1    10       0    0    0    5
 51      1     3       0    0    1    0
 52      1     1       0    2    0    0
 53      1     4       0    0    6    0
 54      1     3       2    0    0    0
 55      1     8       0    0    0    8
 56      1    10       0    0    9    0
 57      1     9       4    0    0    0
 58      1    10       0    0    0   10
 59      1     3       0    0    3    0
 60      1     9       0    0   10    0
 61      1     2       0    0    9    0
 62      1     3       0    7    0    0
 63      1     7       0    9    0    0
 64      1     1       0    2    0    0
 65      1     7       0    0    0    5
 66      1     5       0    6    0    0
 67      1     9       2    0    0    0
 68      1     7       0    8    0    0
 69      1     6       0    0    0    4
 70      1     4       0    5    0    0
 71      1     4       0    0    8    0
 72      1     1       6    0    0    0
 73      1    10       0    0    4    0
 74      1     3      10    0    0    0
 75      1    10       0    0    0    7
 76      1     1       0    0   10    0
 77      1     8      10    0    0    0
 78      1     7       0    0    0    8
 79      1     9       0    8    0    0
 80      1     7      10    0    0    0
 81      1     3       0    5    0    0
 82      1     3       0    0    0    5
 83      1     3       0    0    0    5
 84      1     5       9    0    0    0
 85      1     5       0    0    2    0
 86      1     5       0    8    0    0
 87      1     5       0    0    8    0
 88      1     6       0    9    0    0
 89      1     8       0    0    0    6
 90      1     7       0   10    0    0
 91      1     7       0    0    2    0
 92      1     3       8    0    0    0
 93      1     2       2    0    0    0
 94      1     2       0    0    0    5
 95      1     2       0    0    0    5
 96      1     7       0    0    0    2
 97      1     5       0    2    0    0
 98      1     1       0    0    3    0
 99      1     9       0    0    0    7
100      1     3       0    0    0    3
101      1     5       0    0    1    0
102      1     8       6    0    0    0
103      1    10       8    0    0    0
104      1     5       0    0    0    4
105      1     3       0    0    3    0
106      1     6       0    8    0    0
107      1     3       0    0    6    0
108      1     9       0    0    9    0
109      1     3       0    0    8    0
110      1    10       0    0    0    9
111      1     6       0    4    0    0
112      1    10       0    0    0    9
113      1     8       0    9    0    0
114      1     7       1    0    0    0
115      1     6       3    0    0    0
116      1     6       0    0    6    0
117      1     3       0    0    9    0
118      1     6       0    3    0    0
119      1     6       0    5    0    0
120      1     4       0    0    9    0
121      1     5       6    0    0    0
122      1     0       0    0    0    0
************************************************************************
RESOURCEAVAILABILITIES:
  R 1  R 2  R 3  R 4
   14   17   20   16
************************************************************************
